StringID   Type       x          y          demand     ReadyTime  DueDate    ServiceTime  wp1 wp2 wp3 wp4 wp5 wp6 wp7 wp8 wp9 wp10 wp11 wp12 wp13 wp14 wp15 wp16
D0         d          40.0       50.0       0.0        0.0        960.0      0.0          6   7   8   9   10  11  12  13  14  15   16   17   18   19   20   21 
S0         f          40.0       50.0       0.0        0.0        960.0      0.0          0.2 0.4 0.6 1   1   1   1   1   1   1    1    0.6  0.4  0.2  0    0   
S9         f          14.0       59.0       0.0        0.0        960.0      0.0          0.2 0.4 0.6 1   1   1   1   1   1   1    1    0.6  0.4  0.2  0    0  
S13        f          22.0       34.0       0.0        0.0        960.0      0.0          0   0.1 0.2 0.3 0.3 0.2 0.2 0.2 0.2 0.3  0.3  0.2  0.1  0.0  0    0 
S15        f          39.0       26.0       0.0        0.0        960.0      0.0          0   0.1 0.2 0.3 0.3 0.2 0.2 0.2 0.2 0.3  0.3  0.2  0.1  0.0  0    0 
C23        c          38.0       5.0        30.0       0.0        904.0      10.0         
C19        c          42.0       10.0       40.0       0.0        909.0      10.0          
C49        c          42.0       12.0       10.0       0.0        911.0      10.0          
C4         c          20.0       80.0       40.0       712.0      832.0      10.0          
C81        c          49.0       58.0       10.0       0.0        937.0      10.0         

F Vehicle fuel tank capacity /12/
Q Vehicle load capacity /1000.0/
r fuel consumption rate /0.155/
m inverse refueling rate /0.5/
v average Velocity /1.0/